(declare-const v0 Bool)
(declare-const v1 Bool)
(declare-const v2 Bool)
(declare-const v3 Bool)
(declare-const v4 Bool)
(assert (edge (or v1 (not v0)) v0))
(assert (edge true (or (not v1) v2 (not v0))))
(assert (edge v3 (not v4)))
(assert (edge true (not v4)))
(assert (edge (or v1 (not v0)) (or v2 v3 v4)))
(assert (not (edge (or v3 v4) true)))